N = 40;
MinK = 6;
Capacity = 100;

X = array1d(0..40, [37, 61, 18, 10, 48, 96, 16, 102, 97, 20, 110, 26, 102, 98, 71, 101, 104, 70, 17, 56, 105, 20, 103, 105, 25, 28, 58, 56, 65, 70, 100, 102, 99, 24, 26, 21, 99, 20, 56, 51, 106]);
Y = array1d(0..40, [35, 78, 33, 7, 26, 58, 97, 67, 67, 17, 77, 101, 74, 64, 82, 60, 69, 85, 9, 34, 69, 8, 63, 76, 35, 43, 36, 32, 87, 80, 65, 61, 73, 103, 107, 39, 71, 16, 30, 31, 70]);

Demands = [6, 11, 14, 7, 12, 16, 6, 18, 7, 20, 7, 23, 16, 10, 9, 18, 8, 15, 9, 23, 7, 15, 14, 21, 25, 14, 11, 19, 12, 8, 25, 17, 22, 11, 16, 16, 8, 23, 15, 13];
